
--- Job Assignment_3_b.gms Start 12/30/21 23:39:57 37.1.0 r07954d5 WEX-WEI x86 64bit/MS Windows
--- Applying:
    D:\DESKTOP\37\gmsprmNT.txt
--- GAMS Parameters defined
    Input C:\Users\Administrator\Documents\gamsdir\projdir\Assignment_3_b.gms
    PageWidth 80
    PageSize 0
    PageContr 3
    Action CE
    ScrDir C:\Users\Administrator\Documents\gamsdir\projdir\225a\
    SysDir D:\DESKTOP\37\
    WorkDir C:\Users\Administrator\Documents\gamsdir\projdir\
    LogOption 3
    DFormat 0
    TFormat 0
    ErrorLog 99
    IDE 1
Licensee: GAMS Demo license for Melis Tuncer             G211223|0002CO-GEN
          Bogazici University, Turkey                              DL056714
          C:\Users\Administrator\Documents\GAMS\gamslice.txt
          melistuncer7@hotmail.com, Melis Tuncer                           
          Demo license for demonstration and instructional purposes only
Processor information: 1 socket(s), 4 core(s), and 8 thread(s) available
GAMS 37.1.0   Copyright (C) 1987-2021 GAMS Development. All rights reserved
--- Starting compilation
--- Assignment_3_b.gms(63) 3 Mb
--- Starting execution: elapsed 0:00:00.096
--- Assignment_3_b.gms(61) 4 Mb
--- Generating MIP model Untitled_3
--- Assignment_3_b.gms(63) 4 Mb
---   107 rows  49 columns  613 non-zeroes
---   48 discrete-columns
--- Executing CPLEX (Solvelink=2): elapsed 0:00:00.108

IBM ILOG CPLEX   37.1.0 r07954d5 Released Nov 11, 2021 WEI x86 64bit/MS Window

--- *** This solver runs with a demo license. No commercial use.

Reading parameter(s) from "C:\Users\Administrator\Documents\gamsdir\projdir\cplex.opt"
>>  objrng=all
>>  rhsrng=all
Finished reading from "C:\Users\Administrator\Documents\gamsdir\projdir\cplex.opt"

--- GMO setup time: 0.00s
--- GMO memory 0.52 Mb (peak 0.52 Mb)
--- Dictionary memory 0.00 Mb
--- Cplex 20.1.0.1 link memory 0.00 Mb (peak 0.01 Mb)
--- Starting Cplex

Version identifier: 20.1.0.1 | 2021-04-07 | 3a818710c
CPXPARAM_Advance                                 0
CPXPARAM_Threads                                 1
CPXPARAM_MIP_Display                             4
CPXPARAM_MIP_Pool_Capacity                       0
CPXPARAM_MIP_Tolerances_AbsMIPGap                0
Generic callback                                 0x50
Tried aggregator 2 times.
MIP Presolve eliminated 46 rows and 1 columns.
MIP Presolve modified 24 coefficients.
Aggregator did 1 substitutions.
Reduced MIP has 59 rows, 47 columns, and 158 nonzeros.
Reduced MIP has 23 binaries, 24 generals, 0 SOSs, and 0 indicators.
Presolve time = 0.08 sec. (0.24 ticks)
Found incumbent of value 6755.000000 after 0.08 sec. (0.50 ticks)
Probing time = 0.00 sec. (0.01 ticks)
Tried aggregator 1 time.
Detecting symmetries...
MIP Presolve modified 21 coefficients.
Reduced MIP has 59 rows, 47 columns, and 158 nonzeros.
Reduced MIP has 23 binaries, 24 generals, 0 SOSs, and 0 indicators.
Presolve time = 0.02 sec. (0.11 ticks)
Probing time = 0.00 sec. (0.01 ticks)
MIP emphasis: balance optimality and feasibility.
MIP search method: dynamic search.
Parallel mode: none, using 1 thread.
Tried aggregator 1 time.
LP Presolve eliminated 22 rows and 0 columns.
Aggregator did 22 substitutions.
Reduced LP has 15 rows, 25 columns, and 70 nonzeros.
Presolve time = 0.00 sec. (0.04 ticks)

Iteration log . . .
Iteration:     1   Dual objective     =          1700.000000
Initializing dual steep norms . . .

Iteration log . . .
Iteration:     1   Dual objective     =          5388.400000
Root relaxation solution time = 0.02 sec. (0.13 ticks)

        Nodes                                         Cuts/
   Node  Left     Objective  IInf  Best Integer    Best Bound    ItCnt     Gap

*     0+    0                         6755.0000      350.0000            94.82%
Found incumbent of value 6755.000000 after 0.11 sec. (0.81 ticks)
      0     0     5388.4000    11     6755.0000     5388.4000       15   20.23%
      0     0     5880.9950    15     6755.0000      Cuts: 10       26   12.94%
      0     0     5950.5201    25     6755.0000       Cuts: 7       39   11.91%
      0     0     5951.7667    27     6755.0000       Cuts: 2       41   11.89%
      0     0     5958.9535    26     6755.0000       Cuts: 2       46   11.78%
      0     0     5958.9822    26     6755.0000    MIRcuts: 1       48   11.78%
Detecting symmetries...
Detecting symmetries...
      0     2     5958.9822    26     6755.0000     5961.6901       48   11.74%
Elapsed time = 0.11 sec. (3.00 ticks, tree = 0.01 MB)
*    49    18      integral     0     6629.0000     6367.1138      242    3.95%
Found incumbent of value 6629.000000 after 0.11 sec. (5.10 ticks)
*    77    26      integral     0     6584.0000     6368.2365      325    3.28%
                                                  Impl Bds: 1                  
Found incumbent of value 6584.000000 after 0.13 sec. (6.25 ticks)
*   177+   22                         6580.0000     6431.5445             2.26%
Found incumbent of value 6580.000000 after 0.13 sec. (9.06 ticks)

Cover cuts applied:  1
Implied bound cuts applied:  1
Flow cuts applied:  3
Mixed integer rounding cuts applied:  1
Gomory fractional cuts applied:  2

Root node processing (before b&c):
  Real time             =    0.11 sec. (3.00 ticks)
Sequential b&c:
  Real time             =    0.02 sec. (6.57 ticks)
                          ------------
Total (root+branch&cut) =    0.13 sec. (9.57 ticks)

--- MIP status (101): integer optimal solution.
--- Cplex Time: 0.12sec (det. 9.57 ticks)

--- Fixing integer variables and solving final LP...

Version identifier: 20.1.0.1 | 2021-04-07 | 3a818710c
CPXPARAM_Advance                                 2
CPXPARAM_Threads                                 1
CPXPARAM_MIP_Display                             4
CPXPARAM_MIP_Pool_Capacity                       0
CPXPARAM_MIP_Tolerances_AbsMIPGap                0
Tried aggregator 1 time.
LP Presolve eliminated 106 rows and 49 columns.
All rows and columns eliminated.
Presolve time = 0.00 sec. (0.05 ticks)

--- Fixed MIP status (1): optimal.
--- Cplex Time: 0.11sec (det. 0.09 ticks)

--- Start ranging / sensitivity analysis...
--- Right-hand-side ranging...

EQUATION NAME                            LOWER           CURRENT             UPPER
-------------                            -----           -------             -----
cost                                      -INF                NA              +INF   
supply(1)                                  290               290              +INF   
supply(2)                                  220               220              +INF   
supply(3)                                  180               180              +INF   
supply(4)                                  280               280              +INF   
demand(1)                                 -INF               180               180   
demand(2)                                 -INF               200               200   
demand(3)                                 -INF               160               160   
demand(4)                                 -INF               140               140   
demand(5)                                 -INF               250               250   
demand(Dummy)                             -INF                40                40   
yisusedornot(1.1)                            0                 0              +INF   
yisusedornot(1.2)                            0                 0              +INF   
yisusedornot(1.3)                       -99879                 0              +INF   
yisusedornot(1.4)                       -99859                 0              +INF   
yisusedornot(1.5)                            0                 0              +INF   
yisusedornot(1.Dummy)                   -99969                 0              +INF   
yisusedornot(2.1)                       -99819                 0              +INF   
yisusedornot(2.2)                            0                 0              +INF   
yisusedornot(2.3)                       -99959                 0              +INF   
yisusedornot(2.4)                            0                 0              +INF   
yisusedornot(2.5)                            0                 0              +INF   
yisusedornot(2.Dummy)                        0                 0              +INF   
yisusedornot(3.1)                            0                 0              +INF   
yisusedornot(3.2)                       -99829                 0              +INF   
yisusedornot(3.3)                            0                 0              +INF   
yisusedornot(3.4)                            0                 0              +INF   
yisusedornot(3.5)                            0                 0              +INF   
yisusedornot(3.Dummy)                   -99989                 0              +INF   
yisusedornot(4.1)                            0                 0              +INF   
yisusedornot(4.2)                       -99969                 0              +INF   
yisusedornot(4.3)                            0                 0              +INF   
yisusedornot(4.4)                            0                 0              +INF   
yisusedornot(4.5)                       -99749                 0              +INF   
yisusedornot(4.Dummy)                        0                 0              +INF   
correction(1.1)                              0                 0              +INF   
correction(1.2)                              0                 0              +INF   
correction(1.3)                           -119                 0              +INF   
correction(1.4)                           -139                 0              +INF   
correction(1.5)                              0                 0              +INF   
correction(1.Dummy)                        -29                 0              +INF   
correction(2.1)                           -179                 0              +INF   
correction(2.2)                              0                 0              +INF   
correction(2.3)                            -39                 0              +INF   
correction(2.4)                              0                 0              +INF   
correction(2.5)                              0                 0              +INF   
correction(2.Dummy)                          0                 0              +INF   
correction(3.1)                              0                 0              +INF   
correction(3.2)                           -169                 0              +INF   
correction(3.3)                              0                 0              +INF   
correction(3.4)                              0                 0              +INF   
correction(3.5)                              0                 0              +INF   
correction(3.Dummy)                         -9                 0              +INF   
correction(4.1)                              0                 0              +INF   
correction(4.2)                            -29                 0              +INF   
correction(4.3)                              0                 0              +INF   
correction(4.4)                              0                 0              +INF   
correction(4.5)                           -249                 0              +INF   
correction(4.Dummy)                          0                 0              +INF   
rest1(1.1)                                   1                 1                 1   
rest1(1.2)                                   1                 1                 1   
rest1(1.3)                                   1                 1                 1   
rest1(1.4)                                   1                 1                 1   
rest1(1.5)                                   1                 1                 1   
rest1(1.Dummy)                               1                 1                 1   
rest1(2.1)                                   1                 1                 1   
rest1(2.2)                                   1                 1                 1   
rest1(2.3)                                   1                 1                 1   
rest1(2.4)                                   1                 1                 1   
rest1(2.5)                                   1                 1                 1   
rest1(2.Dummy)                               1                 1                 1   
rest1(3.1)                                   1                 1                 1   
rest1(3.2)                                   1                 1                 1   
rest1(3.3)                                   1                 1                 1   
rest1(3.4)                                   1                 1                 1   
rest1(3.5)                                   1                 1                 1   
rest1(3.Dummy)                               1                 1                 1   
rest1(4.1)                                   1                 1                 1   
rest1(4.2)                                   1                 1                 1   
rest1(4.3)                                   1                 1                 1   
rest1(4.4)                                   1                 1                 1   
rest1(4.5)                                   1                 1                 1   
rest1(4.Dummy)                               1                 1                 1   
rest2(1.1)                                   4                 4              +INF   
rest2(1.2)                                   4                 4              +INF   
rest2(1.3)                                   4                 4              +INF   
rest2(1.4)                                   4                 4              +INF   
rest2(1.5)                                   4                 4              +INF   
rest2(1.Dummy)                               4                 4              +INF   
rest2(2.1)                                   4                 4              +INF   
rest2(2.2)                                   4                 4              +INF   
rest2(2.3)                                   4                 4              +INF   
rest2(2.4)                                   4                 4              +INF   
rest2(2.5)                                   4                 4              +INF   
rest2(2.Dummy)                               4                 4              +INF   
rest2(3.1)                                   4                 4              +INF   
rest2(3.2)                                   4                 4              +INF   
rest2(3.3)                                   4                 4              +INF   
rest2(3.4)                                   4                 4              +INF   
rest2(3.5)                                   4                 4              +INF   
rest2(3.Dummy)                               4                 4              +INF   
rest2(4.1)                                   4                 4              +INF   
rest2(4.2)                                   4                 4              +INF   
rest2(4.3)                                   4                 4              +INF   
rest2(4.4)                                   4                 4              +INF   
rest2(4.5)                                   4                 4              +INF   
rest2(4.Dummy)                               4                 4              +INF   

--- Objective ranging...

VARIABLE NAME                            LOWER           CURRENT             UPPER
-------------                            -----           -------             -----
z                                         -INF                NA              +INF   
x(1.1)                                    -INF               5.5              +INF   
x(1.2)                                    -INF                 6              +INF   
x(1.3)                                    -INF                 8              +INF   
x(1.4)                                    -INF               3.5              +INF   
x(1.5)                                    -INF                 4              +INF   
x(1.Dummy)                                -INF                 0              +INF   
x(2.1)                                    -INF                 3              +INF   
x(2.2)                                    -INF               4.5              +INF   
x(2.3)                                    -INF                 4              +INF   
x(2.4)                                    -INF               6.5              +INF   
x(2.5)                                    -INF                 6              +INF   
x(2.Dummy)                                -INF                 0              +INF   
x(3.1)                                    -INF                11              +INF   
x(3.2)                                    -INF                 6              +INF   
x(3.3)                                    -INF                 3              +INF   
x(3.4)                                    -INF                 4              +INF   
x(3.5)                                    -INF               4.5              +INF   
x(3.Dummy)                                -INF                 0              +INF   
x(4.1)                                    -INF                 5              +INF   
x(4.2)                                    -INF               4.5              +INF   
x(4.3)                                    -INF                 7              +INF   
x(4.4)                                    -INF                 3              +INF   
x(4.5)                                    -INF               7.5              +INF   
x(4.Dummy)                                -INF                 0              +INF   
y(1.1)                                    -INF               350              +INF   
y(1.2)                                    -INF               350              +INF   
y(1.3)                                    -INF                 0              +INF   
y(1.4)                                    -INF               350              +INF   
y(1.5)                                    -INF               350              +INF   
y(1.Dummy)                                -INF                 0              +INF   
y(2.1)                                    -INF               350              +INF   
y(2.2)                                    -INF               350              +INF   
y(2.3)                                    -INF               350              +INF   
y(2.4)                                    -INF               350              +INF   
y(2.5)                                    -INF               350              +INF   
y(2.Dummy)                                -INF                 0              +INF   
y(3.1)                                    -INF                 0              +INF   
y(3.2)                                    -INF                 0              +INF   
y(3.3)                                    -INF               350              +INF   
y(3.4)                                    -INF               350              +INF   
y(3.5)                                    -INF               350              +INF   
y(3.Dummy)                                -INF                 0              +INF   
y(4.1)                                    -INF               350              +INF   
y(4.2)                                    -INF               350              +INF   
y(4.3)                                    -INF               350              +INF   
y(4.4)                                    -INF               350              +INF   
y(4.5)                                    -INF                 0              +INF   
y(4.Dummy)                                -INF                 0              +INF   


Proven optimal solution
MIP Solution:         6580.000000    (528 iterations, 204 nodes)
Final Solve:          6580.000000    (0 iterations)

Best possible:        6580.000000
Absolute gap:            0.000000
Relative gap:            0.000000

--- Reading solution for model Untitled_3
--- Executing after solve: elapsed 0:00:00.607
*** Status: Normal completion
--- Job Assignment_3_b.gms Stop 12/30/21 23:39:58 elapsed 0:00:00.608
